Optimal - objective value 20158.00000000
      0 x0_1                   0         63.0000000000001
      1 x0_2                   0         65.0000000000001
      2 x0_3                   0                      55
      3 x0_4                   1                       0
      4 x0_5                   0         72.0000000000001
      5 x0_6                   0         47.0000000000007
      6 x1_0                   0         43.9999999999999
      7 x1_2                   0                       0
      8 x1_3                   0         -11.0000000000001
      9 x1_4                   0         -3.00000000000003
     10 x1_5                   1                       0
     11 x1_6                   0         18.0000000000002
     12 x2_0                   0                      57
     13 x2_1                   0         11.0000000000001
     14 x2_3                   1                       0
     15 x2_4                   0         17.0000000000001
     16 x2_5                   0         46.0000000000001
     17 x2_6                   0         47.0000000000007
     18 x3_0                   0         46.9999999999999
     19 x3_1                   1                       0
     20 x3_2                   0                       0
     21 x3_4                   0         8.99999999999997
     22 x3_5                   0                      36
     23 x3_6                   0         33.0000000000007
     24 x4_0                   0         -19.0000000000011
     25 x4_1                   0         -3.00000000000095
     26 x4_2                   1         5.99999999999905
     27 x4_3                   0         -2.00000000000108
     28 x4_5                   0         -3.00000000000095
     29 x4_6                   0                       0
     30 x5_0                   0         52.9999999999999
     31 x5_1                   0                       0
     32 x5_2                   0                      35
     33 x5_3                   0         24.9999999999999
     34 x5_4                   0         -3.00000000000003
     35 x5_6                   1                       0
     36 x6_0                   1         27.9999999999999
     37 x6_1                   0         18.0000000000002
     38 x6_2                   0         36.0000000000004
     39 x6_3                   0         22.0000000000005
     40 x6_4                   0                       0
     41 x6_5                   0                       0
     42 u1                    14                       0
     43 u2                     8                       0
     44 u3                    11                       0
     45 u4                     3                       0
     46 u5                    17                       0
     47 u6                    20                       0
